Academic license - for non-commercial use only
Gurobi Optimizer version 9.0.3 build v9.0.3rc0 (mac64)
Optimize a model with 31908 rows, 30240 columns and 165570 nonzeros
Model fingerprint: 0xe2291913
Variable types: 0 continuous, 30240 integer (30240 binary)
Coefficient statistics:
  Matrix range     [1e+00, 1e+00]
  Objective range  [1e+01, 3e+04]
  Bounds range     [1e+00, 1e+00]
  RHS range        [1e+00, 2e+02]
Presolve added 0 rows and 470 columns
Presolve removed 30 rows and 0 columns
Presolve time: 0.37s
Presolved: 31878 rows, 30710 columns, 137010 nonzeros
Variable types: 0 continuous, 30710 integer (30710 binary)
Found heuristic solution: objective 354135.00000

Concurrent LP optimizer: dual simplex and barrier
Showing barrier log only...

Root barrier log...

Ordering time: 0.07s

Barrier statistics:
 Dense cols : 120
 AA' NZ     : 1.090e+05
 Factor NZ  : 2.674e+05 (roughly 30 MBytes of memory)
 Factor Ops : 1.453e+07 (less than 1 second per iteration)
 Threads    : 3

                  Objective                Residual
Iter       Primal          Dual         Primal    Dual     Compl     Time
   0   2.55318778e+07 -2.17102094e+07  2.00e+02 3.18e+01  7.56e+03     1s
   1   4.91862099e+05 -3.00049715e+07  1.07e+00 4.56e+01  3.68e+02     1s
   2   3.90719260e+05 -1.22055734e+07  2.31e-01 6.33e+01  1.42e+02     1s
   3   3.77607430e+05 -1.04881834e+06  1.22e-01 6.30e+00  1.59e+01     1s
   4   3.68693599e+05  4.65278108e+04  7.12e-02 5.03e+00  3.50e+00     1s
   5   3.60667994e+05  1.79974782e+05  5.12e-02 2.53e+00  1.94e+00     1s
   6   3.54773519e+05  2.47148914e+05  4.09e-02 1.24e+00  1.14e+00     1s
   7   3.47618774e+05  2.80610267e+05  3.10e-02 7.90e-01  7.04e-01     1s
   8   3.41675177e+05  2.97168238e+05  2.37e-02 4.05e-01  4.64e-01     1s
   9   3.36891734e+05  3.06894190e+05  1.84e-02 3.77e-01  3.10e-01     1s
  10   3.33381086e+05  3.11668556e+05  1.46e-02 2.13e-01  2.23e-01     1s
  11   3.31615782e+05  3.13644521e+05  1.27e-02 1.59e-01  1.84e-01     1s
  12   3.29662815e+05  3.15270491e+05  1.06e-02 1.19e-01  1.47e-01     1s
  13   3.28871082e+05  3.16221633e+05  9.80e-03 1.06e-01  1.28e-01     1s
  14   3.27133983e+05  3.17018646e+05  7.94e-03 8.27e-02  1.03e-01     1s
  15   3.25542954e+05  3.17600975e+05  6.23e-03 6.61e-02  8.05e-02     1s
  16   3.24265433e+05  3.17911007e+05  4.88e-03 5.89e-02  6.45e-02     1s
  17   3.24084947e+05  3.17990130e+05  4.69e-03 5.65e-02  6.19e-02     1s
  18   3.23252530e+05  3.18308834e+05  3.75e-03 4.81e-02  5.02e-02     1s
  19   3.22291282e+05  3.18592184e+05  2.70e-03 3.90e-02  3.77e-02     1s
  20   3.22115638e+05  3.18750054e+05  2.51e-03 3.43e-02  3.42e-02     1s
  21   3.21709471e+05  3.19079143e+05  2.04e-03 2.51e-02  2.67e-02     1s
  22   3.21339646e+05  3.19169636e+05  1.64e-03 2.25e-02  2.21e-02     1s
  23   3.21232101e+05  3.19297968e+05  1.52e-03 1.79e-02  1.96e-02     1s
  24   3.20974538e+05  3.19387147e+05  1.23e-03 1.46e-02  1.61e-02     1s
  25   3.20762479e+05  3.19465301e+05  9.89e-04 1.22e-02  1.32e-02     1s
  26   3.20680767e+05  3.19599593e+05  9.02e-04 8.16e-03  1.09e-02     1s
  27   3.20466070e+05  3.19653991e+05  6.66e-04 5.50e-03  8.20e-03     1s
  28   3.20380434e+05  3.19677468e+05  5.70e-04 4.88e-03  7.11e-03     1s
  29   3.20287582e+05  3.19725728e+05  4.67e-04 3.82e-03  5.67e-03     1s
  30   3.20187608e+05  3.19751252e+05  3.55e-04 3.05e-03  4.41e-03     1s
  31   3.20118020e+05  3.19770666e+05  2.79e-04 2.53e-03  3.51e-03     1s
  32   3.20028407e+05  3.19794200e+05  1.81e-04 1.72e-03  2.38e-03     1s
  33   3.19986372e+05  3.19808833e+05  1.34e-04 1.29e-03  1.80e-03     2s
  34   3.19969157e+05  3.19826169e+05  1.16e-04 8.42e-04  1.45e-03     2s
  35   3.19926789e+05  3.19840639e+05  7.04e-05 4.55e-04  8.70e-04     2s
  36   3.19890429e+05  3.19848585e+05  3.11e-05 3.10e-04  4.26e-04     2s
  37   3.19886302e+05  3.19849464e+05  2.68e-05 2.88e-04  3.75e-04     2s
  38   3.19863736e+05  3.19859004e+05  3.62e-06 2.70e-05  4.80e-05     2s
  39   3.19860033e+05  3.19859992e+05  2.04e-08 7.78e-08  4.20e-07     2s
  40   3.19860000e+05  3.19860000e+05  4.39e-11 4.78e-09  2.70e-12     2s

Barrier solved model in 40 iterations and 1.64 seconds
Optimal objective 3.19860000e+05


Solved with barrier

Root relaxation: objective 3.198600e+05, 3047 iterations, 1.12 seconds

    Nodes    |    Current Node    |     Objective Bounds      |     Work
 Expl Unexpl |  Obj  Depth IntInf | Incumbent    BestBd   Gap | It/Node Time

     0     0 319860.000    0  936 354135.000 319860.000  9.68%     -    2s
H    0     0                    320322.00000 319860.000  0.14%     -    2s
H    0     0                    319982.00000 319860.000  0.04%     -    3s
H    0     0                    319974.00000 319860.000  0.04%     -    4s
H    0     0                    319961.00000 319860.000  0.03%     -    4s
H    0     0                    319936.00000 319860.000  0.02%     -    4s

Cutting planes:
  Gomory: 1
  Zero half: 144

Explored 1 nodes (3172 simplex iterations) in 5.00 seconds
Thread count was 8 (of 8 available processors)

Solution count 6: 319936 319961 319974 ... 354135

Optimal solution found (tolerance 1.00e-04)
Best objective 3.199360000000e+05, best bound 3.199360000000e+05, gap 0.0000%

User-callback calls 1553, time in user-callback 0.01 sec
Solution written to /Users/mdeboute/Desktop/Etudes/Master/M2/S9/GOPP/Projet/multi-period-flp/solution/instMulti_I30_J250_T4_1_result.txt
